HUN,8,6,585
1,17,2,9,0,22,3,17,5,8,4,21
2,2,0,28,1,3,4,10,3,21,5,13
0,21,2,3,1,7,3,23,4,13,5,6
1,14,2,14,0,5,4,25,3,26,5,10
1,29,2,9,0,8,4,6,5,12,3,20
0,5,2,8,1,29,4,7,5,11,3,10
1,30,0,16,2,25,5,18,4,21,3,27
2,1,1,30,0,28,5,25,4,8,3,1
